
Gurobi 9.0.2 (mac64, Python) logging started Thu Jul 30 10:19:36 2020

Using license file /Users/severinpfister/gurobi.lic
Set parameter LogFile to value gurobi.log
Academic license - for non-commercial use only
